problem_generation/data/GISP/train/er_n=60_m=1108_p=0.60_SET2_setparam=100.00_alpha=0.50_769.lp
maximize
OBJ:100x0 + 100x1 + 100x2 + 100x3 + 100x4 + 100x5 + 100x6 + 100x7 + 100x8 + 100x9 + 100x10 + 100x11 + 100x12 + 100x13 + 100x14 + 100x15 + 100x16 + 100x17 + 100x18 + 100x19 + 100x20 + 100x21 + 100x22 + 100x23 + 100x24 + 100x25 + 100x26 + 100x27 + 100x28 + 100x29 + 100x30 + 100x31 + 100x32 + 100x33 + 100x34 + 100x35 + 100x36 + 100x37 + 100x38 + 100x39 + 100x40 + 100x41 + 100x42 + 100x43 + 100x44 + 100x45 + 100x46 + 100x47 + 100x48 + 100x49 + 100x50 + 100x51 + 100x52 + 100x53 + 100x54 + 100x55 + 100x56 + 100x57 + 100x58 + 100x59 - y36_53 - y15_30 - y15_39 - y28_58 - y8_9 - y0_5 - y6_48 - y11_14 - y0_23 - y10_27 - y41_42 - y33_38 - y41_51 - y44_47 - y10_54 - y25_52 - y22_28 - y22_37 - y3_33 - y14_42 - y36_48 - y17_44 - y47_57 - y9_58 - y21_32 - y0_9 - y48_58 - y21_59 - y44_51 - y2_45 - y22_23 - y2_54 - y3_19 - y14_28 - y28_48 - y17_57 - y9_53 - y29_31 - y29_40 - y6_47 - y21_45 - y40_58 - y10_17 - y10_26 - y2_31 - y10_44 - y3_5 - y32_41 - y2_49 - y43_50 - y24_46 - y14_23 - y32_59 - y13_55 - y7_11 - y5_41 - y28_43 - y9_39 - y9_48 - y9_57 - y21_22 - y6_51 - y10_12 - y2_17 - y2_26 - y25_28 - y24_32 - y13_41 - y24_41 - y3_18 - y14_18 - y16_37 - y28_29 - y5_36 - y17_38 - y28_38 - y36_51 - y5_45 - y6_10 - y28_47 - y28_56 - y9_52 - y29_30 - y21_26 - y6_37 - y39_52 - y2_12 - y10_25 - y31_57 - y4_49 - y24_27 - y3_4 - y4_58 - y13_36 - y16_32 - y32_58 - y1_52 - y13_54 - y9_11 - y16_59 - y17_24 - y17_42 - y6_32 - y21_30 - y0_56 - y11_56 - y2_16 - y31_52 - y4_44 - y4_53 - y32_35 - y24_31 - y32_44 - y1_38 - y16_45 - y5_8 - y5_17 - y17_19 - y38_51 - y17_28 - y28_37 - y9_33 - y6_18 - y27_50 - y8_46 - y30_55 - y39_42 - y12_25 - y20_38 - y31_38 - y12_34 - y2_11 - y4_48 - y13_26 - y24_26 - y4_57 - y32_39 - y24_44 - y1_51 - y5_12 - y46_50 - y9_10 - y26_53 - y49_55 - y5_39 - y7_58 - y18_58 - y6_13 - y8_32 - y27_45 - y19_41 - y30_41 - y42_43 - y19_50 - y42_52 - y30_59 - y20_24 - y0_55 - y12_20 - y4_25 - y1_10 - y12_56 - y1_19 - y23_56 - y16_17 - y34_53 - y1_28 - y1_37 - y46_54 - y27_40 - y27_49 - y0_32 - y19_45 - y19_54 - y42_56 - y0_50 - y12_15 - y20_28 - y4_29 - y12_42 - y1_5 - y34_39 - y4_47 - y37_44 - y16_21 - y22_55 - y34_57 - y37_53 - y15_34 - y5_11 - y15_43 - y38_45 - y46_58 - y18_39 - y26_52 - y0_18 - y11_18 - y19_31 - y19_40 - y30_40 - y41_46 - y30_58 - y12_37 - y25_56 - y37_39 - y45_52 - y3_46 - y22_59 - y14_55 - y26_29 - y18_25 - y26_38 - y7_34 - y15_56 - y26_56 - y8_17 - y8_35 - y30_35 - y0_31 - y8_44 - y30_44 - y0_40 - y11_40 - y4_10 - y41_59 - y25_51 - y1_4 - y22_36 - y1_13 - y45_47 - y14_41 - y37_43 - y3_50 - y15_24 - y18_20 - y18_29 - y15_42 - y7_47 - y8_12 - y29_53 - y4_5 - y52_54 - y4_14 - y33_50 - y10_57 - y22_31 - y3_27 - y22_40 - y34_42 - y14_36 - y37_38 - y34_51 - y37_47 - y3_54 - y37_56 - y7_15 - y18_24 - y7_33 - y8_16 - y40_57 - y11_30 - y33_36 - y4_9 - y10_43 - y33_45 - y44_45 - y52_58 - y10_52 - y2_48 - y2_57 - y14_22 - y3_31 - y37_42 - y3_49 - y7_19 - y18_28 - y48_56 - y21_39 - y11_16 - y6_59 - y21_57 - y2_25 - y33_49 - y3_8 - y10_56 - y51_57 - y3_17 - y14_26 - y13_58 - y14_44 - y36_41 - y7_14 - y36_50 - y47_59 - y5_53 - y17_55 - y28_55 - y29_38 - y6_45 - y40_47 - y6_54 - y29_56 - y40_56 - y10_15 - y10_24 - y2_29 - y10_42 - y2_38 - y3_12 - y32_48 - y22_25 - y14_21 - y43_57 - y35_53 - y28_32 - y36_54 - y5_48 - y5_57 - y9_55 - y6_31 - y29_33 - y29_42 - y21_38 - y29_51 - y39_55 - y2_24 - y10_37 - y3_7 - y32_43 - y35_39 - y24_48 - y35_48 - y35_57 - y16_53 - y36_40 - y9_23 - y17_36 - y5_52 - y21_33 - y21_42 - y10_14 - y39_50 - y2_19 - y10_32 - y23_51 - y2_28 - y2_37 - y1_41 - y24_43 - y1_59 - y17_22 - y9_18 - y5_29 - y28_31 - y36_44 - y17_40 - y28_40 - y9_36 - y6_12 - y9_45 - y6_21 - y50_55 - y31_41 - y39_54 - y31_50 - y23_46 - y2_23 - y4_42 - y1_27 - y1_36 - y24_38 - y32_51 - y35_38 - y43_51 - y13_47 - y1_54 - y24_56 - y5_15 - y9_22 - y38_58 - y49_58 - y5_42 - y28_44 - y5_51 - y6_25 - y27_57 - y19_53 - y0_58 - y11_58 - y39_40 - y10_13 - y12_32 - y39_49 - y31_45 - y31_54 - y12_50 - y23_50 - y4_46 - y12_59 - y16_20 - y1_31 - y24_33 - y1_40 - y1_49 - y46_48 - y38_44 - y49_53 - y17_30 - y28_30 - y6_20 - y30_39 - y27_52 - y50_54 - y8_57 - y12_18 - y39_44 - y12_27 - y2_4 - y4_23 - y20_40 - y31_49 - y4_32 - y31_58 - y12_54 - y1_17 - y53_55 - y4_50 - y16_24 - y24_37 - y35_37 - y16_33 - y1_44 - y16_42 - y5_14 - y9_12 - y38_48 - y9_21 - y26_55 - y38_57 - y8_34 - y27_47 - y0_39 - y8_52 - y42_54 - y0_48 - y23_31 - y20_44 - y23_40 - y12_49 - y1_12 - y16_19 - y34_55 - y16_28 - y1_39 - y3_58 - y14_58 - y5_9 - y15_41 - y5_18 - y46_56 - y7_46 - y11_25 - y0_34 - y11_34 - y30_47 - y42_49 - y0_43 - y8_56 - y30_56 - y4_13 - y31_39 - y44_58 - y12_35 - y23_44 - y1_7 - y34_41 - y1_25 - y37_46 - y34_59 - y14_53 - y5_13 - y38_47 - y7_41 - y15_54 - y18_50 - y8_15 - y27_37 - y0_20 - y11_20 - y8_33 - y27_46 - y11_29 - y8_42 - y30_51 - y0_47 - y11_47 - y20_25 - y12_21 - y41_57 - y4_17 - y23_30 - y25_49 - y22_43 - y53_58 - y37_41 - y34_54 - y45_54 - y3_48 - y14_48 - y3_57 - y14_57 - y15_22 - y18_36 - y15_49 - y26_49 - y0_15 - y0_24 - y33_39 - y41_52 - y33_48 - y2_51 - y25_53 - y22_29 - y14_43 - y56_58 - y14_52 - y15_17 - y7_22 - y15_35 - y26_44 - y18_40 - y0_1 - y7_49 - y8_14 - y19_23 - y0_19 - y6_53 - y0_28 - y11_28 - y41_47 - y10_41 - y33_52 - y44_52 - y2_46 - y25_48 - y2_55 - y3_20 - y22_33 - y3_29 - y37_40 - y22_51 - y14_47
 Subject to
C1: x0+x1-y0_1 <=1 
C2: x0+x3 <=1 
C3: x0+x4 <=1 
C4: x0+x5-y0_5 <=1 
C5: x0+x6 <=1 
C6: x0+x7 <=1 
C7: x0+x8 <=1 
C8: x0+x9-y0_9 <=1 
C9: x0+x10 <=1 
C10: x0+x11 <=1 
C11: x0+x13 <=1 
C12: x0+x15-y0_15 <=1 
C13: x0+x16 <=1 
C14: x0+x17 <=1 
C15: x0+x18-y0_18 <=1 
C16: x0+x19-y0_19 <=1 
C17: x0+x20-y0_20 <=1 
C18: x0+x21 <=1 
C19: x0+x23-y0_23 <=1 
C20: x0+x24-y0_24 <=1 
C21: x0+x26 <=1 
C22: x0+x27 <=1 
C23: x0+x28-y0_28 <=1 
C24: x0+x29 <=1 
C25: x0+x31-y0_31 <=1 
C26: x0+x32-y0_32 <=1 
C27: x0+x34-y0_34 <=1 
C28: x0+x35 <=1 
C29: x0+x36 <=1 
C30: x0+x39-y0_39 <=1 
C31: x0+x40-y0_40 <=1 
C32: x0+x43-y0_43 <=1 
C33: x0+x45 <=1 
C34: x0+x47-y0_47 <=1 
C35: x0+x48-y0_48 <=1 
C36: x0+x49 <=1 
C37: x0+x50-y0_50 <=1 
C38: x0+x55-y0_55 <=1 
C39: x0+x56-y0_56 <=1 
C40: x0+x58-y0_58 <=1 
C41: x0+x59 <=1 
C42: x1+x2 <=1 
C43: x1+x3 <=1 
C44: x1+x4-y1_4 <=1 
C45: x1+x5-y1_5 <=1 
C46: x1+x6 <=1 
C47: x1+x7-y1_7 <=1 
C48: x1+x8 <=1 
C49: x1+x10-y1_10 <=1 
C50: x1+x11 <=1 
C51: x1+x12-y1_12 <=1 
C52: x1+x13-y1_13 <=1 
C53: x1+x16 <=1 
C54: x1+x17-y1_17 <=1 
C55: x1+x19-y1_19 <=1 
C56: x1+x22 <=1 
C57: x1+x24 <=1 
C58: x1+x25-y1_25 <=1 
C59: x1+x27-y1_27 <=1 
C60: x1+x28-y1_28 <=1 
C61: x1+x29 <=1 
C62: x1+x31-y1_31 <=1 
C63: x1+x35 <=1 
C64: x1+x36-y1_36 <=1 
C65: x1+x37-y1_37 <=1 
C66: x1+x38-y1_38 <=1 
C67: x1+x39-y1_39 <=1 
C68: x1+x40-y1_40 <=1 
C69: x1+x41-y1_41 <=1 
C70: x1+x42 <=1 
C71: x1+x43 <=1 
C72: x1+x44-y1_44 <=1 
C73: x1+x45 <=1 
C74: x1+x46 <=1 
C75: x1+x49-y1_49 <=1 
C76: x1+x51-y1_51 <=1 
C77: x1+x52-y1_52 <=1 
C78: x1+x53 <=1 
C79: x1+x54-y1_54 <=1 
C80: x1+x56 <=1 
C81: x1+x59-y1_59 <=1 
C82: x2+x4-y2_4 <=1 
C83: x2+x5 <=1 
C84: x2+x6 <=1 
C85: x2+x7 <=1 
C86: x2+x11-y2_11 <=1 
C87: x2+x12-y2_12 <=1 
C88: x2+x13 <=1 
C89: x2+x15 <=1 
C90: x2+x16-y2_16 <=1 
C91: x2+x17-y2_17 <=1 
C92: x2+x19-y2_19 <=1 
C93: x2+x20 <=1 
C94: x2+x21 <=1 
C95: x2+x23-y2_23 <=1 
C96: x2+x24-y2_24 <=1 
C97: x2+x25-y2_25 <=1 
C98: x2+x26-y2_26 <=1 
C99: x2+x27 <=1 
C100: x2+x28-y2_28 <=1 
C101: x2+x29-y2_29 <=1 
C102: x2+x30 <=1 
C103: x2+x31-y2_31 <=1 
C104: x2+x36 <=1 
C105: x2+x37-y2_37 <=1 
C106: x2+x38-y2_38 <=1 
C107: x2+x40 <=1 
C108: x2+x41 <=1 
C109: x2+x44 <=1 
C110: x2+x45-y2_45 <=1 
C111: x2+x46-y2_46 <=1 
C112: x2+x48-y2_48 <=1 
C113: x2+x49-y2_49 <=1 
C114: x2+x50 <=1 
C115: x2+x51-y2_51 <=1 
C116: x2+x52 <=1 
C117: x2+x53 <=1 
C118: x2+x54-y2_54 <=1 
C119: x2+x55-y2_55 <=1 
C120: x2+x56 <=1 
C121: x2+x57-y2_57 <=1 
C122: x2+x58 <=1 
C123: x3+x4-y3_4 <=1 
C124: x3+x5-y3_5 <=1 
C125: x3+x6 <=1 
C126: x3+x7-y3_7 <=1 
C127: x3+x8-y3_8 <=1 
C128: x3+x12-y3_12 <=1 
C129: x3+x13 <=1 
C130: x3+x17-y3_17 <=1 
C131: x3+x18-y3_18 <=1 
C132: x3+x19-y3_19 <=1 
C133: x3+x20-y3_20 <=1 
C134: x3+x21 <=1 
C135: x3+x27-y3_27 <=1 
C136: x3+x29-y3_29 <=1 
C137: x3+x31-y3_31 <=1 
C138: x3+x33-y3_33 <=1 
C139: x3+x39 <=1 
C140: x3+x40 <=1 
C141: x3+x42 <=1 
C142: x3+x43 <=1 
C143: x3+x46-y3_46 <=1 
C144: x3+x47 <=1 
C145: x3+x48-y3_48 <=1 
C146: x3+x49-y3_49 <=1 
C147: x3+x50-y3_50 <=1 
C148: x3+x51 <=1 
C149: x3+x54-y3_54 <=1 
C150: x3+x56 <=1 
C151: x3+x57-y3_57 <=1 
C152: x3+x58-y3_58 <=1 
C153: x3+x59 <=1 
C154: x4+x5-y4_5 <=1 
C155: x4+x6 <=1 
C156: x4+x8 <=1 
C157: x4+x9-y4_9 <=1 
C158: x4+x10-y4_10 <=1 
C159: x4+x13-y4_13 <=1 
C160: x4+x14-y4_14 <=1 
C161: x4+x15 <=1 
C162: x4+x17-y4_17 <=1 
C163: x4+x19 <=1 
C164: x4+x20 <=1 
C165: x4+x22 <=1 
C166: x4+x23-y4_23 <=1 
C167: x4+x25-y4_25 <=1 
C168: x4+x26 <=1 
C169: x4+x29-y4_29 <=1 
C170: x4+x31 <=1 
C171: x4+x32-y4_32 <=1 
C172: x4+x34 <=1 
C173: x4+x36 <=1 
C174: x4+x37 <=1 
C175: x4+x38 <=1 
C176: x4+x41 <=1 
C177: x4+x42-y4_42 <=1 
C178: x4+x43 <=1 
C179: x4+x44-y4_44 <=1 
C180: x4+x46-y4_46 <=1 
C181: x4+x47-y4_47 <=1 
C182: x4+x48-y4_48 <=1 
C183: x4+x49-y4_49 <=1 
C184: x4+x50-y4_50 <=1 
C185: x4+x51 <=1 
C186: x4+x52 <=1 
C187: x4+x53-y4_53 <=1 
C188: x4+x55 <=1 
C189: x4+x56 <=1 
C190: x4+x57-y4_57 <=1 
C191: x4+x58-y4_58 <=1 
C192: x5+x6 <=1 
C193: x5+x8-y5_8 <=1 
C194: x5+x9-y5_9 <=1 
C195: x5+x10 <=1 
C196: x5+x11-y5_11 <=1 
C197: x5+x12-y5_12 <=1 
C198: x5+x13-y5_13 <=1 
C199: x5+x14-y5_14 <=1 
C200: x5+x15-y5_15 <=1 
C201: x5+x16 <=1 
C202: x5+x17-y5_17 <=1 
C203: x5+x18-y5_18 <=1 
C204: x5+x19 <=1 
C205: x5+x22 <=1 
C206: x5+x24 <=1 
C207: x5+x26 <=1 
C208: x5+x27 <=1 
C209: x5+x28 <=1 
C210: x5+x29-y5_29 <=1 
C211: x5+x31 <=1 
C212: x5+x36-y5_36 <=1 
C213: x5+x37 <=1 
C214: x5+x38 <=1 
C215: x5+x39-y5_39 <=1 
C216: x5+x40 <=1 
C217: x5+x41-y5_41 <=1 
C218: x5+x42-y5_42 <=1 
C219: x5+x45-y5_45 <=1 
C220: x5+x46 <=1 
C221: x5+x47 <=1 
C222: x5+x48-y5_48 <=1 
C223: x5+x49 <=1 
C224: x5+x51-y5_51 <=1 
C225: x5+x52-y5_52 <=1 
C226: x5+x53-y5_53 <=1 
C227: x5+x55 <=1 
C228: x5+x57-y5_57 <=1 
C229: x5+x58 <=1 
C230: x5+x59 <=1 
C231: x6+x8 <=1 
C232: x6+x9 <=1 
C233: x6+x10-y6_10 <=1 
C234: x6+x12-y6_12 <=1 
C235: x6+x13-y6_13 <=1 
C236: x6+x14 <=1 
C237: x6+x18-y6_18 <=1 
C238: x6+x20-y6_20 <=1 
C239: x6+x21-y6_21 <=1 
C240: x6+x22 <=1 
C241: x6+x23 <=1 
C242: x6+x24 <=1 
C243: x6+x25-y6_25 <=1 
C244: x6+x27 <=1 
C245: x6+x28 <=1 
C246: x6+x29 <=1 
C247: x6+x30 <=1 
C248: x6+x31-y6_31 <=1 
C249: x6+x32-y6_32 <=1 
C250: x6+x35 <=1 
C251: x6+x37-y6_37 <=1 
C252: x6+x38 <=1 
C253: x6+x39 <=1 
C254: x6+x42 <=1 
C255: x6+x45-y6_45 <=1 
C256: x6+x47-y6_47 <=1 
C257: x6+x48-y6_48 <=1 
C258: x6+x49 <=1 
C259: x6+x50 <=1 
C260: x6+x51-y6_51 <=1 
C261: x6+x52 <=1 
C262: x6+x53-y6_53 <=1 
C263: x6+x54-y6_54 <=1 
C264: x6+x55 <=1 
C265: x6+x57 <=1 
C266: x6+x58 <=1 
C267: x6+x59-y6_59 <=1 
C268: x7+x9 <=1 
C269: x7+x11-y7_11 <=1 
C270: x7+x14-y7_14 <=1 
C271: x7+x15-y7_15 <=1 
C272: x7+x16 <=1 
C273: x7+x17 <=1 
C274: x7+x19-y7_19 <=1 
C275: x7+x21 <=1 
C276: x7+x22-y7_22 <=1 
C277: x7+x23 <=1 
C278: x7+x27 <=1 
C279: x7+x31 <=1 
C280: x7+x32 <=1 
C281: x7+x33-y7_33 <=1 
C282: x7+x34-y7_34 <=1 
C283: x7+x35 <=1 
C284: x7+x36 <=1 
C285: x7+x37 <=1 
C286: x7+x40 <=1 
C287: x7+x41-y7_41 <=1 
C288: x7+x42 <=1 
C289: x7+x46-y7_46 <=1 
C290: x7+x47-y7_47 <=1 
C291: x7+x49-y7_49 <=1 
C292: x7+x50 <=1 
C293: x7+x52 <=1 
C294: x7+x55 <=1 
C295: x7+x56 <=1 
C296: x7+x58-y7_58 <=1 
C297: x8+x9-y8_9 <=1 
C298: x8+x12-y8_12 <=1 
C299: x8+x14-y8_14 <=1 
C300: x8+x15-y8_15 <=1 
C301: x8+x16-y8_16 <=1 
C302: x8+x17-y8_17 <=1 
C303: x8+x18 <=1 
C304: x8+x19 <=1 
C305: x8+x21 <=1 
C306: x8+x23 <=1 
C307: x8+x25 <=1 
C308: x8+x28 <=1 
C309: x8+x31 <=1 
C310: x8+x32-y8_32 <=1 
C311: x8+x33-y8_33 <=1 
C312: x8+x34-y8_34 <=1 
C313: x8+x35-y8_35 <=1 
C314: x8+x41 <=1 
C315: x8+x42-y8_42 <=1 
C316: x8+x44-y8_44 <=1 
C317: x8+x45 <=1 
C318: x8+x46-y8_46 <=1 
C319: x8+x48 <=1 
C320: x8+x49 <=1 
C321: x8+x50 <=1 
C322: x8+x52-y8_52 <=1 
C323: x8+x53 <=1 
C324: x8+x54 <=1 
C325: x8+x55 <=1 
C326: x8+x56-y8_56 <=1 
C327: x8+x57-y8_57 <=1 
C328: x9+x10-y9_10 <=1 
C329: x9+x11-y9_11 <=1 
C330: x9+x12-y9_12 <=1 
C331: x9+x13 <=1 
C332: x9+x16 <=1 
C333: x9+x17 <=1 
C334: x9+x18-y9_18 <=1 
C335: x9+x20 <=1 
C336: x9+x21-y9_21 <=1 
C337: x9+x22-y9_22 <=1 
C338: x9+x23-y9_23 <=1 
C339: x9+x25 <=1 
C340: x9+x28 <=1 
C341: x9+x30 <=1 
C342: x9+x33-y9_33 <=1 
C343: x9+x36-y9_36 <=1 
C344: x9+x37 <=1 
C345: x9+x39-y9_39 <=1 
C346: x9+x41 <=1 
C347: x9+x42 <=1 
C348: x9+x45-y9_45 <=1 
C349: x9+x48-y9_48 <=1 
C350: x9+x50 <=1 
C351: x9+x51 <=1 
C352: x9+x52-y9_52 <=1 
C353: x9+x53-y9_53 <=1 
C354: x9+x55-y9_55 <=1 
C355: x9+x56 <=1 
C356: x9+x57-y9_57 <=1 
C357: x9+x58-y9_58 <=1 
C358: x10+x11 <=1 
C359: x10+x12-y10_12 <=1 
C360: x10+x13-y10_13 <=1 
C361: x10+x14-y10_14 <=1 
C362: x10+x15-y10_15 <=1 
C363: x10+x16 <=1 
C364: x10+x17-y10_17 <=1 
C365: x10+x18 <=1 
C366: x10+x20 <=1 
C367: x10+x22 <=1 
C368: x10+x23 <=1 
C369: x10+x24-y10_24 <=1 
C370: x10+x25-y10_25 <=1 
C371: x10+x26-y10_26 <=1 
C372: x10+x27-y10_27 <=1 
C373: x10+x29 <=1 
C374: x10+x30 <=1 
C375: x10+x32-y10_32 <=1 
C376: x10+x36 <=1 
C377: x10+x37-y10_37 <=1 
C378: x10+x38 <=1 
C379: x10+x41-y10_41 <=1 
C380: x10+x42-y10_42 <=1 
C381: x10+x43-y10_43 <=1 
C382: x10+x44-y10_44 <=1 
C383: x10+x47 <=1 
C384: x10+x49 <=1 
C385: x10+x50 <=1 
C386: x10+x51 <=1 
C387: x10+x52-y10_52 <=1 
C388: x10+x53 <=1 
C389: x10+x54-y10_54 <=1 
C390: x10+x56-y10_56 <=1 
C391: x10+x57-y10_57 <=1 
C392: x11+x13 <=1 
C393: x11+x14-y11_14 <=1 
C394: x11+x16-y11_16 <=1 
C395: x11+x18-y11_18 <=1 
C396: x11+x20-y11_20 <=1 
C397: x11+x22 <=1 
C398: x11+x25-y11_25 <=1 
C399: x11+x28-y11_28 <=1 
C400: x11+x29-y11_29 <=1 
C401: x11+x30-y11_30 <=1 
C402: x11+x32 <=1 
C403: x11+x34-y11_34 <=1 
C404: x11+x35 <=1 
C405: x11+x36 <=1 
C406: x11+x38 <=1 
C407: x11+x39 <=1 
C408: x11+x40-y11_40 <=1 
C409: x11+x42 <=1 
C410: x11+x43 <=1 
C411: x11+x45 <=1 
C412: x11+x47-y11_47 <=1 
C413: x11+x52 <=1 
C414: x11+x53 <=1 
C415: x11+x54 <=1 
C416: x11+x55 <=1 
C417: x11+x56-y11_56 <=1 
C418: x11+x58-y11_58 <=1 
C419: x11+x59 <=1 
C420: x12+x15-y12_15 <=1 
C421: x12+x18-y12_18 <=1 
C422: x12+x19 <=1 
C423: x12+x20-y12_20 <=1 
C424: x12+x21-y12_21 <=1 
C425: x12+x25-y12_25 <=1 
C426: x12+x27-y12_27 <=1 
C427: x12+x28 <=1 
C428: x12+x29 <=1 
C429: x12+x32-y12_32 <=1 
C430: x12+x33 <=1 
C431: x12+x34-y12_34 <=1 
C432: x12+x35-y12_35 <=1 
C433: x12+x36 <=1 
C434: x12+x37-y12_37 <=1 
C435: x12+x38 <=1 
C436: x12+x39 <=1 
C437: x12+x40 <=1 
C438: x12+x42-y12_42 <=1 
C439: x12+x44 <=1 
C440: x12+x46 <=1 
C441: x12+x47 <=1 
C442: x12+x48 <=1 
C443: x12+x49-y12_49 <=1 
C444: x12+x50-y12_50 <=1 
C445: x12+x51 <=1 
C446: x12+x52 <=1 
C447: x12+x54-y12_54 <=1 
C448: x12+x55 <=1 
C449: x12+x56-y12_56 <=1 
C450: x12+x58 <=1 
C451: x12+x59-y12_59 <=1 
C452: x13+x15 <=1 
C453: x13+x17 <=1 
C454: x13+x20 <=1 
C455: x13+x23 <=1 
C456: x13+x24 <=1 
C457: x13+x26-y13_26 <=1 
C458: x13+x27 <=1 
C459: x13+x33 <=1 
C460: x13+x34 <=1 
C461: x13+x35 <=1 
C462: x13+x36-y13_36 <=1 
C463: x13+x38 <=1 
C464: x13+x40 <=1 
C465: x13+x41-y13_41 <=1 
C466: x13+x42 <=1 
C467: x13+x43 <=1 
C468: x13+x47-y13_47 <=1 
C469: x13+x48 <=1 
C470: x13+x54-y13_54 <=1 
C471: x13+x55-y13_55 <=1 
C472: x13+x56 <=1 
C473: x13+x58-y13_58 <=1 
C474: x14+x16 <=1 
C475: x14+x18-y14_18 <=1 
C476: x14+x19 <=1 
C477: x14+x21-y14_21 <=1 
C478: x14+x22-y14_22 <=1 
C479: x14+x23-y14_23 <=1 
C480: x14+x26-y14_26 <=1 
C481: x14+x27 <=1 
C482: x14+x28-y14_28 <=1 
C483: x14+x29 <=1 
C484: x14+x33 <=1 
C485: x14+x34 <=1 
C486: x14+x35 <=1 
C487: x14+x36-y14_36 <=1 
C488: x14+x39 <=1 
C489: x14+x40 <=1 
C490: x14+x41-y14_41 <=1 
C491: x14+x42-y14_42 <=1 
C492: x14+x43-y14_43 <=1 
C493: x14+x44-y14_44 <=1 
C494: x14+x46 <=1 
C495: x14+x47-y14_47 <=1 
C496: x14+x48-y14_48 <=1 
C497: x14+x51 <=1 
C498: x14+x52-y14_52 <=1 
C499: x14+x53-y14_53 <=1 
C500: x14+x54 <=1 
C501: x14+x55-y14_55 <=1 
C502: x14+x57-y14_57 <=1 
C503: x14+x58-y14_58 <=1 
C504: x14+x59 <=1 
C505: x15+x16 <=1 
C506: x15+x17-y15_17 <=1 
C507: x15+x18 <=1 
C508: x15+x22-y15_22 <=1 
C509: x15+x23 <=1 
C510: x15+x24-y15_24 <=1 
C511: x15+x27 <=1 
C512: x15+x29 <=1 
C513: x15+x30-y15_30 <=1 
C514: x15+x31 <=1 
C515: x15+x32 <=1 
C516: x15+x34-y15_34 <=1 
C517: x15+x35-y15_35 <=1 
C518: x15+x36 <=1 
C519: x15+x37 <=1 
C520: x15+x38 <=1 
C521: x15+x39-y15_39 <=1 
C522: x15+x41-y15_41 <=1 
C523: x15+x42-y15_42 <=1 
C524: x15+x43-y15_43 <=1 
C525: x15+x44 <=1 
C526: x15+x48 <=1 
C527: x15+x49-y15_49 <=1 
C528: x15+x53 <=1 
C529: x15+x54-y15_54 <=1 
C530: x15+x56-y15_56 <=1 
C531: x16+x17-y16_17 <=1 
C532: x16+x19-y16_19 <=1 
C533: x16+x20-y16_20 <=1 
C534: x16+x21-y16_21 <=1 
C535: x16+x22 <=1 
C536: x16+x24-y16_24 <=1 
C537: x16+x25 <=1 
C538: x16+x26 <=1 
C539: x16+x28-y16_28 <=1 
C540: x16+x29 <=1 
C541: x16+x32-y16_32 <=1 
C542: x16+x33-y16_33 <=1 
C543: x16+x34 <=1 
C544: x16+x35 <=1 
C545: x16+x37-y16_37 <=1 
C546: x16+x39 <=1 
C547: x16+x42-y16_42 <=1 
C548: x16+x43 <=1 
C549: x16+x44 <=1 
C550: x16+x45-y16_45 <=1 
C551: x16+x47 <=1 
C552: x16+x49 <=1 
C553: x16+x50 <=1 
C554: x16+x53-y16_53 <=1 
C555: x16+x59-y16_59 <=1 
C556: x17+x18 <=1 
C557: x17+x19-y17_19 <=1 
C558: x17+x22-y17_22 <=1 
C559: x17+x23 <=1 
C560: x17+x24-y17_24 <=1 
C561: x17+x27 <=1 
C562: x17+x28-y17_28 <=1 
C563: x17+x30-y17_30 <=1 
C564: x17+x31 <=1 
C565: x17+x32 <=1 
C566: x17+x33 <=1 
C567: x17+x34 <=1 
C568: x17+x36-y17_36 <=1 
C569: x17+x38-y17_38 <=1 
C570: x17+x40-y17_40 <=1 
C571: x17+x41 <=1 
C572: x17+x42-y17_42 <=1 
C573: x17+x43 <=1 
C574: x17+x44-y17_44 <=1 
C575: x17+x48 <=1 
C576: x17+x49 <=1 
C577: x17+x50 <=1 
C578: x17+x53 <=1 
C579: x17+x54 <=1 
C580: x17+x55-y17_55 <=1 
C581: x17+x57-y17_57 <=1 
C582: x17+x58 <=1 
C583: x17+x59 <=1 
C584: x18+x19 <=1 
C585: x18+x20-y18_20 <=1 
C586: x18+x21 <=1 
C587: x18+x23 <=1 
C588: x18+x24-y18_24 <=1 
C589: x18+x25-y18_25 <=1 
C590: x18+x26 <=1 
C591: x18+x27 <=1 
C592: x18+x28-y18_28 <=1 
C593: x18+x29-y18_29 <=1 
C594: x18+x31 <=1 
C595: x18+x32 <=1 
C596: x18+x34 <=1 
C597: x18+x36-y18_36 <=1 
C598: x18+x37 <=1 
C599: x18+x39-y18_39 <=1 
C600: x18+x40-y18_40 <=1 
C601: x18+x41 <=1 
C602: x18+x47 <=1 
C603: x18+x48 <=1 
C604: x18+x50-y18_50 <=1 
C605: x18+x52 <=1 
C606: x18+x54 <=1 
C607: x18+x55 <=1 
C608: x18+x58-y18_58 <=1 
C609: x19+x20 <=1 
C610: x19+x21 <=1 
C611: x19+x23-y19_23 <=1 
C612: x19+x25 <=1 
C613: x19+x26 <=1 
C614: x19+x28 <=1 
C615: x19+x29 <=1 
C616: x19+x31-y19_31 <=1 
C617: x19+x33 <=1 
C618: x19+x37 <=1 
C619: x19+x40-y19_40 <=1 
C620: x19+x41-y19_41 <=1 
C621: x19+x42 <=1 
C622: x19+x44 <=1 
C623: x19+x45-y19_45 <=1 
C624: x19+x47 <=1 
C625: x19+x48 <=1 
C626: x19+x50-y19_50 <=1 
C627: x19+x53-y19_53 <=1 
C628: x19+x54-y19_54 <=1 
C629: x19+x58 <=1 
C630: x19+x59 <=1 
C631: x20+x22 <=1 
C632: x20+x24-y20_24 <=1 
C633: x20+x25-y20_25 <=1 
C634: x20+x26 <=1 
C635: x20+x27 <=1 
C636: x20+x28-y20_28 <=1 
C637: x20+x35 <=1 
C638: x20+x38-y20_38 <=1 
C639: x20+x39 <=1 
C640: x20+x40-y20_40 <=1 
C641: x20+x44-y20_44 <=1 
C642: x20+x46 <=1 
C643: x20+x47 <=1 
C644: x20+x49 <=1 
C645: x20+x51 <=1 
C646: x20+x53 <=1 
C647: x20+x55 <=1 
C648: x20+x58 <=1 
C649: x21+x22-y21_22 <=1 
C650: x21+x23 <=1 
C651: x21+x25 <=1 
C652: x21+x26-y21_26 <=1 
C653: x21+x27 <=1 
C654: x21+x30-y21_30 <=1 
C655: x21+x31 <=1 
C656: x21+x32-y21_32 <=1 
C657: x21+x33-y21_33 <=1 
C658: x21+x38-y21_38 <=1 
C659: x21+x39-y21_39 <=1 
C660: x21+x42-y21_42 <=1 
C661: x21+x45-y21_45 <=1 
C662: x21+x46 <=1 
C663: x21+x48 <=1 
C664: x21+x53 <=1 
C665: x21+x55 <=1 
C666: x21+x56 <=1 
C667: x21+x57-y21_57 <=1 
C668: x21+x58 <=1 
C669: x21+x59-y21_59 <=1 
C670: x22+x23-y22_23 <=1 
C671: x22+x24 <=1 
C672: x22+x25-y22_25 <=1 
C673: x22+x27 <=1 
C674: x22+x28-y22_28 <=1 
C675: x22+x29-y22_29 <=1 
C676: x22+x30 <=1 
C677: x22+x31-y22_31 <=1 
C678: x22+x32 <=1 
C679: x22+x33-y22_33 <=1 
C680: x22+x36-y22_36 <=1 
C681: x22+x37-y22_37 <=1 
C682: x22+x40-y22_40 <=1 
C683: x22+x42 <=1 
C684: x22+x43-y22_43 <=1 
C685: x22+x45 <=1 
C686: x22+x46 <=1 
C687: x22+x48 <=1 
C688: x22+x50 <=1 
C689: x22+x51-y22_51 <=1 
C690: x22+x52 <=1 
C691: x22+x53 <=1 
C692: x22+x54 <=1 
C693: x22+x55-y22_55 <=1 
C694: x22+x58 <=1 
C695: x22+x59-y22_59 <=1 
C696: x23+x24 <=1 
C697: x23+x25 <=1 
C698: x23+x27 <=1 
C699: x23+x28 <=1 
C700: x23+x30-y23_30 <=1 
C701: x23+x31-y23_31 <=1 
C702: x23+x32 <=1 
C703: x23+x33 <=1 
C704: x23+x34 <=1 
C705: x23+x38 <=1 
C706: x23+x40-y23_40 <=1 
C707: x23+x42 <=1 
C708: x23+x44-y23_44 <=1 
C709: x23+x45 <=1 
C710: x23+x46-y23_46 <=1 
C711: x23+x48 <=1 
C712: x23+x50-y23_50 <=1 
C713: x23+x51-y23_51 <=1 
C714: x23+x52 <=1 
C715: x23+x53 <=1 
C716: x23+x55 <=1 
C717: x23+x56-y23_56 <=1 
C718: x23+x57 <=1 
C719: x23+x58 <=1 
C720: x23+x59 <=1 
C721: x24+x26-y24_26 <=1 
C722: x24+x27-y24_27 <=1 
C723: x24+x31-y24_31 <=1 
C724: x24+x32-y24_32 <=1 
C725: x24+x33-y24_33 <=1 
C726: x24+x36 <=1 
C727: x24+x37-y24_37 <=1 
C728: x24+x38-y24_38 <=1 
C729: x24+x40 <=1 
C730: x24+x41-y24_41 <=1 
C731: x24+x43-y24_43 <=1 
C732: x24+x44-y24_44 <=1 
C733: x24+x45 <=1 
C734: x24+x46-y24_46 <=1 
C735: x24+x48-y24_48 <=1 
C736: x24+x49 <=1 
C737: x24+x50 <=1 
C738: x24+x54 <=1 
C739: x24+x56-y24_56 <=1 
C740: x24+x57 <=1 
C741: x25+x26 <=1 
C742: x25+x28-y25_28 <=1 
C743: x25+x29 <=1 
C744: x25+x30 <=1 
C745: x25+x33 <=1 
C746: x25+x36 <=1 
C747: x25+x37 <=1 
C748: x25+x38 <=1 
C749: x25+x39 <=1 
C750: x25+x40 <=1 
C751: x25+x41 <=1 
C752: x25+x43 <=1 
C753: x25+x48-y25_48 <=1 
C754: x25+x49-y25_49 <=1 
C755: x25+x51-y25_51 <=1 
C756: x25+x52-y25_52 <=1 
C757: x25+x53-y25_53 <=1 
C758: x25+x54 <=1 
C759: x25+x56-y25_56 <=1 
C760: x25+x58 <=1 
C761: x25+x59 <=1 
C762: x26+x27 <=1 
C763: x26+x29-y26_29 <=1 
C764: x26+x30 <=1 
C765: x26+x32 <=1 
C766: x26+x34 <=1 
C767: x26+x36 <=1 
C768: x26+x38-y26_38 <=1 
C769: x26+x39 <=1 
C770: x26+x44-y26_44 <=1 
C771: x26+x45 <=1 
C772: x26+x47 <=1 
C773: x26+x48 <=1 
C774: x26+x49-y26_49 <=1 
C775: x26+x52-y26_52 <=1 
C776: x26+x53-y26_53 <=1 
C777: x26+x54 <=1 
C778: x26+x55-y26_55 <=1 
C779: x26+x56-y26_56 <=1 
C780: x26+x57 <=1 
C781: x26+x59 <=1 
C782: x27+x28 <=1 
C783: x27+x30 <=1 
C784: x27+x32 <=1 
C785: x27+x34 <=1 
C786: x27+x36 <=1 
C787: x27+x37-y27_37 <=1 
C788: x27+x38 <=1 
C789: x27+x39 <=1 
C790: x27+x40-y27_40 <=1 
C791: x27+x44 <=1 
C792: x27+x45-y27_45 <=1 
C793: x27+x46-y27_46 <=1 
C794: x27+x47-y27_47 <=1 
C795: x27+x49-y27_49 <=1 
C796: x27+x50-y27_50 <=1 
C797: x27+x52-y27_52 <=1 
C798: x27+x53 <=1 
C799: x27+x55 <=1 
C800: x27+x56 <=1 
C801: x27+x57-y27_57 <=1 
C802: x27+x58 <=1 
C803: x28+x29-y28_29 <=1 
C804: x28+x30-y28_30 <=1 
C805: x28+x31-y28_31 <=1 
C806: x28+x32-y28_32 <=1 
C807: x28+x35 <=1 
C808: x28+x36 <=1 
C809: x28+x37-y28_37 <=1 
C810: x28+x38-y28_38 <=1 
C811: x28+x39 <=1 
C812: x28+x40-y28_40 <=1 
C813: x28+x43-y28_43 <=1 
C814: x28+x44-y28_44 <=1 
C815: x28+x47-y28_47 <=1 
C816: x28+x48-y28_48 <=1 
C817: x28+x49 <=1 
C818: x28+x50 <=1 
C819: x28+x51 <=1 
C820: x28+x53 <=1 
C821: x28+x55-y28_55 <=1 
C822: x28+x56-y28_56 <=1 
C823: x28+x57 <=1 
C824: x28+x58-y28_58 <=1 
C825: x28+x59 <=1 
C826: x29+x30-y29_30 <=1 
C827: x29+x31-y29_31 <=1 
C828: x29+x33-y29_33 <=1 
C829: x29+x34 <=1 
C830: x29+x35 <=1 
C831: x29+x36 <=1 
C832: x29+x37 <=1 
C833: x29+x38-y29_38 <=1 
C834: x29+x39 <=1 
C835: x29+x40-y29_40 <=1 
C836: x29+x41 <=1 
C837: x29+x42-y29_42 <=1 
C838: x29+x43 <=1 
C839: x29+x46 <=1 
C840: x29+x51-y29_51 <=1 
C841: x29+x53-y29_53 <=1 
C842: x29+x56-y29_56 <=1 
C843: x29+x58 <=1 
C844: x30+x31 <=1 
C845: x30+x35-y30_35 <=1 
C846: x30+x38 <=1 
C847: x30+x39-y30_39 <=1 
C848: x30+x40-y30_40 <=1 
C849: x30+x41-y30_41 <=1 
C850: x30+x42 <=1 
C851: x30+x43 <=1 
C852: x30+x44-y30_44 <=1 
C853: x30+x45 <=1 
C854: x30+x46 <=1 
C855: x30+x47-y30_47 <=1 
C856: x30+x48 <=1 
C857: x30+x51-y30_51 <=1 
C858: x30+x53 <=1 
C859: x30+x55-y30_55 <=1 
C860: x30+x56-y30_56 <=1 
C861: x30+x58-y30_58 <=1 
C862: x30+x59-y30_59 <=1 
C863: x31+x32 <=1 
C864: x31+x33 <=1 
C865: x31+x36 <=1 
C866: x31+x37 <=1 
C867: x31+x38-y31_38 <=1 
C868: x31+x39-y31_39 <=1 
C869: x31+x41-y31_41 <=1 
C870: x31+x45-y31_45 <=1 
C871: x31+x46 <=1 
C872: x31+x49-y31_49 <=1 
C873: x31+x50-y31_50 <=1 
C874: x31+x51 <=1 
C875: x31+x52-y31_52 <=1 
C876: x31+x53 <=1 
C877: x31+x54-y31_54 <=1 
C878: x31+x55 <=1 
C879: x31+x56 <=1 
C880: x31+x57-y31_57 <=1 
C881: x31+x58-y31_58 <=1 
C882: x32+x33 <=1 
C883: x32+x35-y32_35 <=1 
C884: x32+x39-y32_39 <=1 
C885: x32+x40 <=1 
C886: x32+x41-y32_41 <=1 
C887: x32+x43-y32_43 <=1 
C888: x32+x44-y32_44 <=1 
C889: x32+x45 <=1 
C890: x32+x46 <=1 
C891: x32+x48-y32_48 <=1 
C892: x32+x50 <=1 
C893: x32+x51-y32_51 <=1 
C894: x32+x53 <=1 
C895: x32+x55 <=1 
C896: x32+x57 <=1 
C897: x32+x58-y32_58 <=1 
C898: x32+x59-y32_59 <=1 
C899: x33+x35 <=1 
C900: x33+x36-y33_36 <=1 
C901: x33+x38-y33_38 <=1 
C902: x33+x39-y33_39 <=1 
C903: x33+x40 <=1 
C904: x33+x45-y33_45 <=1 
C905: x33+x46 <=1 
C906: x33+x47 <=1 
C907: x33+x48-y33_48 <=1 
C908: x33+x49-y33_49 <=1 
C909: x33+x50-y33_50 <=1 
C910: x33+x52-y33_52 <=1 
C911: x33+x53 <=1 
C912: x33+x56 <=1 
C913: x33+x59 <=1 
C914: x34+x35 <=1 
C915: x34+x37 <=1 
C916: x34+x39-y34_39 <=1 
C917: x34+x40 <=1 
C918: x34+x41-y34_41 <=1 
C919: x34+x42-y34_42 <=1 
C920: x34+x43 <=1 
C921: x34+x44 <=1 
C922: x34+x51-y34_51 <=1 
C923: x34+x53-y34_53 <=1 
C924: x34+x54-y34_54 <=1 
C925: x34+x55-y34_55 <=1 
C926: x34+x56 <=1 
C927: x34+x57-y34_57 <=1 
C928: x34+x59-y34_59 <=1 
C929: x35+x37-y35_37 <=1 
C930: x35+x38-y35_38 <=1 
C931: x35+x39-y35_39 <=1 
C932: x35+x42 <=1 
C933: x35+x43 <=1 
C934: x35+x47 <=1 
C935: x35+x48-y35_48 <=1 
C936: x35+x49 <=1 
C937: x35+x50 <=1 
C938: x35+x53-y35_53 <=1 
C939: x35+x54 <=1 
C940: x35+x55 <=1 
C941: x35+x56 <=1 
C942: x35+x57-y35_57 <=1 
C943: x35+x58 <=1 
C944: x36+x38 <=1 
C945: x36+x40-y36_40 <=1 
C946: x36+x41-y36_41 <=1 
C947: x36+x43 <=1 
C948: x36+x44-y36_44 <=1 
C949: x36+x46 <=1 
C950: x36+x48-y36_48 <=1 
C951: x36+x49 <=1 
C952: x36+x50-y36_50 <=1 
C953: x36+x51-y36_51 <=1 
C954: x36+x53-y36_53 <=1 
C955: x36+x54-y36_54 <=1 
C956: x36+x55 <=1 
C957: x36+x59 <=1 
C958: x37+x38-y37_38 <=1 
C959: x37+x39-y37_39 <=1 
C960: x37+x40-y37_40 <=1 
C961: x37+x41-y37_41 <=1 
C962: x37+x42-y37_42 <=1 
C963: x37+x43-y37_43 <=1 
C964: x37+x44-y37_44 <=1 
C965: x37+x46-y37_46 <=1 
C966: x37+x47-y37_47 <=1 
C967: x37+x48 <=1 
C968: x37+x53-y37_53 <=1 
C969: x37+x56-y37_56 <=1 
C970: x37+x58 <=1 
C971: x38+x42 <=1 
C972: x38+x43 <=1 
C973: x38+x44-y38_44 <=1 
C974: x38+x45-y38_45 <=1 
C975: x38+x46 <=1 
C976: x38+x47-y38_47 <=1 
C977: x38+x48-y38_48 <=1 
C978: x38+x50 <=1 
C979: x38+x51-y38_51 <=1 
C980: x38+x54 <=1 
C981: x38+x55 <=1 
C982: x38+x57-y38_57 <=1 
C983: x38+x58-y38_58 <=1 
C984: x38+x59 <=1 
C985: x39+x40-y39_40 <=1 
C986: x39+x42-y39_42 <=1 
C987: x39+x43 <=1 
C988: x39+x44-y39_44 <=1 
C989: x39+x45 <=1 
C990: x39+x49-y39_49 <=1 
C991: x39+x50-y39_50 <=1 
C992: x39+x52-y39_52 <=1 
C993: x39+x54-y39_54 <=1 
C994: x39+x55-y39_55 <=1 
C995: x39+x57 <=1 
C996: x40+x41 <=1 
C997: x40+x47-y40_47 <=1 
C998: x40+x48 <=1 
C999: x40+x54 <=1 
C1000: x40+x55 <=1 
C1001: x40+x56-y40_56 <=1 
C1002: x40+x57-y40_57 <=1 
C1003: x40+x58-y40_58 <=1 
C1004: x40+x59 <=1 
C1005: x41+x42-y41_42 <=1 
C1006: x41+x45 <=1 
C1007: x41+x46-y41_46 <=1 
C1008: x41+x47-y41_47 <=1 
C1009: x41+x49 <=1 
C1010: x41+x51-y41_51 <=1 
C1011: x41+x52-y41_52 <=1 
C1012: x41+x53 <=1 
C1013: x41+x54 <=1 
C1014: x41+x55 <=1 
C1015: x41+x57-y41_57 <=1 
C1016: x41+x58 <=1 
C1017: x41+x59-y41_59 <=1 
C1018: x42+x43-y42_43 <=1 
C1019: x42+x44 <=1 
C1020: x42+x45 <=1 
C1021: x42+x46 <=1 
C1022: x42+x49-y42_49 <=1 
C1023: x42+x52-y42_52 <=1 
C1024: x42+x53 <=1 
C1025: x42+x54-y42_54 <=1 
C1026: x42+x55 <=1 
C1027: x42+x56-y42_56 <=1 
C1028: x42+x58 <=1 
C1029: x43+x45 <=1 
C1030: x43+x50-y43_50 <=1 
C1031: x43+x51-y43_51 <=1 
C1032: x43+x52 <=1 
C1033: x43+x53 <=1 
C1034: x43+x56 <=1 
C1035: x43+x57-y43_57 <=1 
C1036: x43+x58 <=1 
C1037: x43+x59 <=1 
C1038: x44+x45-y44_45 <=1 
C1039: x44+x47-y44_47 <=1 
C1040: x44+x48 <=1 
C1041: x44+x50 <=1 
C1042: x44+x51-y44_51 <=1 
C1043: x44+x52-y44_52 <=1 
C1044: x44+x54 <=1 
C1045: x44+x55 <=1 
C1046: x44+x56 <=1 
C1047: x44+x58-y44_58 <=1 
C1048: x45+x46 <=1 
C1049: x45+x47-y45_47 <=1 
C1050: x45+x48 <=1 
C1051: x45+x50 <=1 
C1052: x45+x52-y45_52 <=1 
C1053: x45+x53 <=1 
C1054: x45+x54-y45_54 <=1 
C1055: x45+x57 <=1 
C1056: x45+x59 <=1 
C1057: x46+x47 <=1 
C1058: x46+x48-y46_48 <=1 
C1059: x46+x50-y46_50 <=1 
C1060: x46+x54-y46_54 <=1 
C1061: x46+x55 <=1 
C1062: x46+x56-y46_56 <=1 
C1063: x46+x57 <=1 
C1064: x46+x58-y46_58 <=1 
C1065: x47+x49 <=1 
C1066: x47+x50 <=1 
C1067: x47+x52 <=1 
C1068: x47+x53 <=1 
C1069: x47+x54 <=1 
C1070: x47+x56 <=1 
C1071: x47+x57-y47_57 <=1 
C1072: x47+x59-y47_59 <=1 
C1073: x48+x49 <=1 
C1074: x48+x51 <=1 
C1075: x48+x52 <=1 
C1076: x48+x53 <=1 
C1077: x48+x55 <=1 
C1078: x48+x56-y48_56 <=1 
C1079: x48+x58-y48_58 <=1 
C1080: x49+x50 <=1 
C1081: x49+x52 <=1 
C1082: x49+x53-y49_53 <=1 
C1083: x49+x54 <=1 
C1084: x49+x55-y49_55 <=1 
C1085: x49+x58-y49_58 <=1 
C1086: x50+x53 <=1 
C1087: x50+x54-y50_54 <=1 
C1088: x50+x55-y50_55 <=1 
C1089: x50+x56 <=1 
C1090: x50+x57 <=1 
C1091: x51+x54 <=1 
C1092: x51+x55 <=1 
C1093: x51+x57-y51_57 <=1 
C1094: x52+x54-y52_54 <=1 
C1095: x52+x55 <=1 
C1096: x52+x57 <=1 
C1097: x52+x58-y52_58 <=1 
C1098: x52+x59 <=1 
C1099: x53+x55-y53_55 <=1 
C1100: x53+x58-y53_58 <=1 
C1101: x54+x55 <=1 
C1102: x55+x56 <=1 
C1103: x55+x58 <=1 
C1104: x56+x57 <=1 
C1105: x56+x58-y56_58 <=1 
C1106: x56+x59 <=1 
C1107: x57+x58 <=1 
C1108: x57+x59 <=1 

binary
x0
x1
x2
x3
x4
x5
x6
x7
x8
x9
x10
x11
x12
x13
x14
x15
x16
x17
x18
x19
x20
x21
x22
x23
x24
x25
x26
x27
x28
x29
x30
x31
x32
x33
x34
x35
x36
x37
x38
x39
x40
x41
x42
x43
x44
x45
x46
x47
x48
x49
x50
x51
x52
x53
x54
x55
x56
x57
x58
x59
