problem_generation/data/GISP/train/er_n=60_m=1108_p=0.60_SET2_setparam=100.00_alpha=0.50_769.sol
objective value:                                 1170
x1                                                  1 	(obj:100)
x5                                                  1 	(obj:100)
x15                                                 1 	(obj:100)
x21                                                 1 	(obj:100)
x30                                                 1 	(obj:100)
x33                                                 1 	(obj:100)
x34                                                 1 	(obj:100)
x39                                                 1 	(obj:100)
x41                                                 1 	(obj:100)
x50                                                 1 	(obj:100)
x51                                                 1 	(obj:100)
x52                                                 1 	(obj:100)
y15_30                                              1 	(obj:-1)
y15_39                                              1 	(obj:-1)
y41_51                                              1 	(obj:-1)
y5_41                                               1 	(obj:-1)
y39_52                                              1 	(obj:-1)
y1_52                                               1 	(obj:-1)
y21_30                                              1 	(obj:-1)
y1_51                                               1 	(obj:-1)
y5_39                                               1 	(obj:-1)
y30_41                                              1 	(obj:-1)
y1_5                                                1 	(obj:-1)
y34_39                                              1 	(obj:-1)
y15_34                                              1 	(obj:-1)
y33_50                                              1 	(obj:-1)
y34_51                                              1 	(obj:-1)
y21_39                                              1 	(obj:-1)
y5_52                                               1 	(obj:-1)
y21_33                                              1 	(obj:-1)
y39_50                                              1 	(obj:-1)
y1_41                                               1 	(obj:-1)
y5_15                                               1 	(obj:-1)
y5_51                                               1 	(obj:-1)
y30_39                                              1 	(obj:-1)
y1_39                                               1 	(obj:-1)
y15_41                                              1 	(obj:-1)
y34_41                                              1 	(obj:-1)
y30_51                                              1 	(obj:-1)
y33_39                                              1 	(obj:-1)
y41_52                                              1 	(obj:-1)
y33_52                                              1 	(obj:-1)
